(set-option :print-success false)
(set-logic QF_UF)
(declare-sort x54 0)
(declare-sort x81 0)
(declare-fun x8 (x81 x81) x81)
(declare-fun x32 () x81)
(declare-fun x117 () x81)
(declare-fun x48 () x81)
(declare-fun x83 (x81 x81) x81)
(declare-fun x35 () x81)
(declare-fun x46 () x81)
(assert (and (or (or (or (or (not (= (x8 x32 (x8 x32 x48)) x48)) (not (= x117 (x8 x32 (x8 x32 x117))))) (not (= (x8 x32 (x8 x32 x35)) x35))) (not (= (x8 x32 (x8 x32 x46)) x46))) (not (= x32 (x8 x32 (x8 x32 x32))))) (and (and (or (not (= x32 (x8 x35 (x8 x35 x32)))) (or (or (or (not (= (x8 x35 (x8 x35 x117)) x117)) (not (= (x8 x35 (x8 x35 x48)) x48))) (not (= (x8 x35 (x8 x35 x35)) x35))) (not (= (x8 x35 (x8 x35 x46)) x46)))) (and (or (not (= x32 (x8 x117 (x8 x117 x32)))) (or (not (= x46 (x8 x117 (x8 x117 x46)))) (or (or (not (= x48 (x8 x117 (x8 x117 x48)))) (not (= x117 (x8 x117 (x8 x117 x117))))) (not (= (x8 x117 (x8 x117 x35)) x35))))) (or (not (= x32 (x8 x48 (x8 x48 x32)))) (or (or (not (= x35 (x8 x48 (x8 x48 x35)))) (or (not (= (x8 x48 (x8 x48 x117)) x117)) (not (= (x8 x48 (x8 x48 x48)) x48)))) (not (= (x8 x48 (x8 x48 x46)) x46)))))) (or (or (not (= (x8 x46 (x8 x46 x46)) x46)) (or (or (not (= x117 (x8 x46 (x8 x46 x117)))) (not (= (x8 x46 (x8 x46 x48)) x48))) (not (= (x8 x46 (x8 x46 x35)) x35)))) (not (= x32 (x8 x46 (x8 x46 x32))))))))
(assert (let ((x79 (x8 x35 x35)) (x76 (x8 x35 x117)) (x7 (x8 x48 x46)) (x154 (x8 x46 x35)) (x75 (x8 x48 x32)) (x21 (x8 x32 x117)) (x122 (x8 x48 x48)) (x142 (x8 x35 x32)) (x10 (x8 x46 x48)) (x78 (x8 x117 x35)) (x42 (x8 x35 x48)) (x150 (x8 x46 x32)) (x157 (x8 x117 x46)) (x49 (x8 x46 x46)) (x23 (x8 x32 x48)) (x158 (x8 x48 x117)) (x132 (x8 x117 x48)) (x14 (x8 x48 x35)) (x91 (x8 x117 x117)) (x113 (x8 x35 x46)) (x123 (x8 x117 x32)) (x17 (x8 x32 x46)) (x118 (x8 x32 x32)) (x53 (x8 x46 x117)) (x94 (x8 x32 x35))) (and (and (and (and (and (not (= x154 x150)) (and (and (not (= x150 x10)) (and (and (not (= x10 x154)) (and (and (and (not (= x154 x53)) (not (= x10 x53))) (not (= x53 x49))) (not (= x150 x53)))) (not (= x49 x10)))) (not (= x49 x154)))) (not (= x150 x49))) (and (and (and (and (not (= x75 x14)) (and (and (and (not (= x122 x7)) (and (and (not (= x75 x158)) (and (not (= x158 x7)) (and (not (= x158 x14)) (not (= x158 x122))))) (not (= x14 x122)))) (not (= x75 x122))) (not (= x7 x14)))) (not (= x7 x75))) (and (not (= x157 x123)) (and (and (not (= x78 x157)) (and (and (not (= x132 x157)) (and (and (not (= x123 x91)) (and (not (= x157 x91)) (and (not (= x132 x91)) (not (= x91 x78))))) (not (= x78 x132)))) (not (= x132 x123)))) (not (= x123 x78))))) (and (not (= x142 x113)) (and (and (and (and (not (= x113 x42)) (and (and (not (= x76 x142)) (and (not (= x76 x113)) (and (not (= x76 x42)) (not (= x76 x79))))) (not (= x42 x79)))) (not (= x142 x42))) (not (= x79 x113))) (not (= x79 x142)))))) (and (and (and (and (not (= x23 x118)) (and (and (not (= x94 x23)) (and (not (= x21 x118)) (and (and (not (= x94 x21)) (not (= x23 x21))) (not (= x17 x21))))) (not (= x23 x17)))) (not (= x17 x94))) (not (= x94 x118))) (not (= x118 x17)))) (and (and (and (and (and (not (= x21 x53)) (and (not (= x76 x21)) (and (not (= x76 x53)) (and (and (not (= x53 x158)) (and (not (= x76 x158)) (and (and (and (not (= x91 x158)) (not (= x91 x76))) (not (= x53 x91))) (not (= x91 x21))))) (not (= x158 x21)))))) (and (not (= x10 x23)) (and (and (not (= x42 x10)) (and (not (= x122 x23)) (and (not (= x122 x10)) (and (not (= x42 x122)) (and (not (= x132 x23)) (and (not (= x132 x10)) (and (not (= x132 x42)) (not (= x132 x122))))))))) (not (= x42 x23))))) (and (and (not (= x94 x79)) (and (and (and (and (and (not (= x94 x78)) (and (not (= x154 x78)) (and (not (= x78 x14)) (not (= x79 x78))))) (not (= x79 x14))) (not (= x14 x154))) (not (= x94 x14))) (not (= x154 x79)))) (not (= x154 x94)))) (and (and (and (not (= x49 x113)) (and (and (and (not (= x113 x7)) (and (not (= x157 x17)) (and (not (= x157 x49)) (and (not (= x113 x157)) (not (= x157 x7)))))) (not (= x49 x7))) (not (= x17 x7)))) (not (= x113 x17))) (not (= x17 x49)))) (and (not (= x118 x150)) (and (and (and (and (and (not (= x142 x75)) (and (and (not (= x150 x123)) (and (not (= x123 x75)) (not (= x142 x123)))) (not (= x118 x123)))) (not (= x150 x75))) (not (= x75 x118))) (not (= x142 x150))) (not (= x118 x142))))))))
(assert (let ((x157 (x8 x117 x46)) (x53 (x8 x46 x117)) (x122 (x8 x48 x48)) (x10 (x8 x46 x48)) (x132 (x8 x117 x48)) (x142 (x8 x35 x32)) (x42 (x8 x35 x48)) (x17 (x8 x32 x46)) (x75 (x8 x48 x32)) (x78 (x8 x117 x35)) (x154 (x8 x46 x35)) (x123 (x8 x117 x32)) (x91 (x8 x117 x117)) (x49 (x8 x46 x46)) (x76 (x8 x35 x117)) (x118 (x8 x32 x32)) (x150 (x8 x46 x32)) (x94 (x8 x32 x35)) (x158 (x8 x48 x117)) (x7 (x8 x48 x46)) (x79 (x8 x35 x35)) (x113 (x8 x35 x46)) (x23 (x8 x32 x48)) (x21 (x8 x32 x117)) (x14 (x8 x48 x35))) (or (and (and (and (and (not (= x117 (x8 x123 x123))) (not (= x48 (x8 x75 x75)))) (not (= (x8 x142 x142) x35))) (not (= (x8 x150 x150) x46))) (not (= x32 (x8 x118 x118)))) (or (or (and (and (and (and (not (= x117 (x8 x78 x78))) (not (= x48 (x8 x14 x14)))) (not (= (x8 x79 x79) x35))) (not (= x46 (x8 x154 x154)))) (not (= x32 (x8 x94 x94)))) (or (and (not (= x32 (x8 x21 x21))) (and (not (= (x8 x53 x53) x46)) (and (not (= (x8 x76 x76) x35)) (and (not (= (x8 x158 x158) x48)) (not (= (x8 x91 x91) x117)))))) (and (and (and (not (= x35 (x8 x42 x42))) (and (not (= (x8 x132 x132) x117)) (not (= (x8 x122 x122) x48)))) (not (= x46 (x8 x10 x10)))) (not (= x32 (x8 x23 x23)))))) (and (and (not (= x46 (x8 x49 x49))) (and (and (not (= (x8 x157 x157) x117)) (not (= (x8 x7 x7) x48))) (not (= (x8 x113 x113) x35)))) (not (= x32 (x8 x17 x17))))))))
(assert (let ((x76 (x8 x48 x48)) (x132 (x8 x32 x32)) (x158 (x8 x117 x117)) (x53 (x8 x35 x35)) (x21 (x8 x46 x46))) (let ((x42 (= x76 x48)) (x79 (= x35 x53)) (x94 (= x132 x32)) (x91 (= x117 x158)) (x154 (= x46 x21))) (let ((x23 (and (not (= x132 x35)) (and (and (and (not (= x35 x158)) (not (= x35 x76))) (not x79)) (not (= x35 x21))))) (x122 (and (and (and (and (not (= x117 x76)) (not x91)) (not (= x117 x53))) (not (= x117 x21))) (not (= x132 x117)))) (x14 (and (and (not (= x21 x32)) (and (and (not (= x32 x76)) (not (= x158 x32))) (not (= x53 x32)))) (not x94))) (x78 (and (and (and (not (= x53 x46)) (and (not (= x46 x158)) (not (= x46 x76)))) (not x154)) (not (= x132 x46)))) (x10 (and (not (= x132 x48)) (and (and (not (= x48 x53)) (and (not x42) (not (= x158 x48)))) (not (= x48 x21)))))) (or (or (or (or (or (and (= (x8 x35 x46) x35) x78) (or (or (and x122 (= x35 (x8 x35 x117))) (and (= (x8 x35 x48) x35) x10)) (and x79 x23))) (and (= (x8 x35 x32) x35) x14)) (or (or (or (or (or (and x10 (= x117 (x8 x117 x48))) (and x91 x122)) (and (= x117 (x8 x117 x35)) x23)) (and (= (x8 x117 x46) x117) x78)) (and x14 (= x117 (x8 x117 x32)))) (or (or (and (= x48 (x8 x48 x46)) x78) (or (or (and x122 (= (x8 x48 x117) x48)) (and x10 x42)) (and x23 (= x48 (x8 x48 x35))))) (and x14 (= (x8 x48 x32) x48))))) (or (or (or (or (and x122 (= (x8 x46 x117) x46)) (and (= x46 (x8 x46 x48)) x10)) (and (= x46 (x8 x46 x35)) x23)) (and x78 x154)) (and x14 (= x46 (x8 x46 x32))))) (or (or (and x78 (= x32 (x8 x32 x46))) (or (and (= (x8 x32 x35) x32) x23) (or (and x10 (= x32 (x8 x32 x48))) (and (= (x8 x32 x117) x32) x122)))) (and x14 x94)))))))
(assert (let ((x14 (x8 x35 x48)) (x113 (x8 x46 x35)) (x42 (x8 x48 x35)) (x7 (x8 x46 x48)) (x17 (x8 x46 x32)) (x21 (x8 x117 x32)) (x23 (x8 x48 x32)) (x79 (x8 x35 x35)) (x123 (x8 x32 x117)) (x78 (x8 x35 x117)) (x53 (x8 x117 x46)) (x154 (x8 x35 x46)) (x49 (x8 x46 x46)) (x75 (x8 x32 x48)) (x157 (x8 x46 x117)) (x150 (x8 x32 x46)) (x94 (x8 x35 x32)) (x91 (x8 x117 x117)) (x132 (x8 x48 x117)) (x10 (x8 x48 x46)) (x142 (x8 x32 x35)) (x76 (x8 x117 x35)) (x122 (x8 x48 x48)) (x158 (x8 x117 x48)) (x118 (x8 x32 x32))) (and (and (and (and (and (and (and (and (or (or (or (= x91 x35) (or (= x91 x48) (= x91 x117))) (= x46 x91)) (= x91 x32)) (or (= x158 x32) (or (= x46 x158) (or (= x158 x35) (or (= x158 x117) (= x48 x158)))))) (or (or (or (= x76 x35) (or (= x76 x48) (= x117 x76))) (= x46 x76)) (= x32 x76))) (or (or (or (= x35 x53) (or (= x53 x117) (= x53 x48))) (= x53 x46)) (= x53 x32))) (or (= x21 x32) (or (or (= x35 x21) (or (= x48 x21) (= x117 x21))) (= x21 x46)))) (and (or (= x23 x32) (or (= x46 x23) (or (or (= x23 x48) (= x23 x117)) (= x35 x23)))) (and (and (or (or (= x46 x42) (or (= x35 x42) (or (= x42 x48) (= x117 x42)))) (= x32 x42)) (and (or (= x32 x122) (or (= x46 x122) (or (= x35 x122) (or (= x122 x117) (= x122 x48))))) (or (= x132 x32) (or (= x132 x46) (or (= x132 x35) (or (= x132 x117) (= x48 x132))))))) (or (or (= x46 x10) (or (= x35 x10) (or (= x48 x10) (= x117 x10)))) (= x10 x32))))) (and (or (or (or (= x35 x94) (or (= x117 x94) (= x94 x48))) (= x94 x46)) (= x32 x94)) (and (or (= x154 x32) (or (= x46 x154) (or (= x154 x35) (or (= x48 x154) (= x117 x154))))) (and (or (or (= x46 x79) (or (or (= x79 x48) (= x117 x79)) (= x79 x35))) (= x79 x32)) (and (or (or (or (or (= x14 x48) (= x14 x117)) (= x35 x14)) (= x14 x46)) (= x32 x14)) (or (= x32 x78) (or (or (= x78 x35) (or (= x48 x78) (= x78 x117))) (= x46 x78)))))))) (and (and (and (and (or (or (= x46 x7) (or (= x35 x7) (or (= x7 x117) (= x48 x7)))) (= x7 x32)) (or (or (= x46 x157) (or (= x157 x35) (or (= x157 x117) (= x157 x48)))) (= x32 x157))) (or (= x113 x32) (or (= x113 x46) (or (or (= x113 x48) (= x117 x113)) (= x35 x113))))) (or (= x49 x32) (or (or (or (= x49 x48) (= x49 x117)) (= x35 x49)) (= x49 x46)))) (or (= x17 x32) (or (or (= x35 x17) (or (= x17 x117) (= x48 x17))) (= x46 x17))))) (and (and (and (or (or (or (= x35 x142) (or (= x48 x142) (= x117 x142))) (= x46 x142)) (= x32 x142)) (and (or (or (= x46 x123) (or (= x123 x35) (or (= x123 x117) (= x123 x48)))) (= x32 x123)) (or (or (= x46 x75) (or (or (= x75 x117) (= x48 x75)) (= x35 x75))) (= x32 x75)))) (or (= x150 x32) (or (= x46 x150) (or (= x150 x35) (or (= x48 x150) (= x117 x150)))))) (or (= x118 x32) (or (or (or (= x48 x118) (= x118 x117)) (= x118 x35)) (= x46 x118)))))))
(assert (not (and (= (x8 x32 x32) x117) (and (and (and (= (x8 x32 x48) x32) (and (= x46 (x8 x32 x117)) (and (= x48 (x8 x46 x32)) (and (and (= x46 (x8 x46 x35)) (and (= (x8 x46 x48) x117) (and (= (x8 x46 x117) x32) (and (= (x8 x35 x32) x35) (and (= (x8 x35 x46) x32) (and (= x48 (x8 x35 x35)) (and (and (and (= x46 (x8 x48 x32)) (and (and (= (x8 x48 x35) x32) (and (= (x8 x48 x48) x48) (and (and (and (and (and (= (x8 x117 x117) x48) (= x35 (x8 x117 x48))) (= x117 (x8 x117 x35))) (= x46 (x8 x117 x46))) (= x32 (x8 x117 x32))) (= (x8 x48 x117) x35)))) (= (x8 x48 x46) x117))) (= (x8 x35 x117) x117)) (= (x8 x35 x48) x46)))))))) (= (x8 x46 x46) x35))))) (= x35 (x8 x32 x35))) (= x48 (x8 x32 x46))))))
(assert (let ((x7 (x8 x46 x48)) (x150 (x8 x32 x46)) (x23 (x8 x48 x32)) (x94 (x8 x35 x32)) (x10 (x8 x48 x46)) (x157 (x8 x46 x117)) (x53 (x8 x117 x46)) (x158 (x8 x117 x48)) (x142 (x8 x32 x35)) (x118 (x8 x32 x32)) (x76 (x8 x117 x35)) (x78 (x8 x35 x117)) (x154 (x8 x35 x46)) (x132 (x8 x48 x117)) (x91 (x8 x117 x117)) (x21 (x8 x117 x32)) (x79 (x8 x35 x35)) (x49 (x8 x46 x46)) (x14 (x8 x35 x48)) (x113 (x8 x46 x35)) (x75 (x8 x32 x48)) (x122 (x8 x48 x48)) (x17 (x8 x46 x32)) (x123 (x8 x32 x117)) (x42 (x8 x48 x35))) (or (and (not (= (x8 x118 x118) x32)) (and (and (not (= (x8 x142 x142) x35)) (and (not (= (x8 x123 x123) x117)) (not (= (x8 x75 x75) x48)))) (not (= x46 (x8 x150 x150))))) (or (or (and (not (= x32 (x8 x94 x94))) (and (and (not (= x35 (x8 x79 x79))) (and (not (= (x8 x14 x14) x48)) (not (= (x8 x78 x78) x117)))) (not (= (x8 x154 x154) x46)))) (or (and (and (not (= x46 (x8 x10 x10))) (and (and (not (= x48 (x8 x122 x122))) (not (= (x8 x132 x132) x117))) (not (= x35 (x8 x42 x42))))) (not (= x32 (x8 x23 x23)))) (and (and (not (= (x8 x53 x53) x46)) (and (and (not (= x117 (x8 x91 x91))) (not (= x48 (x8 x158 x158)))) (not (= (x8 x76 x76) x35)))) (not (= (x8 x21 x21) x32))))) (and (not (= x32 (x8 x17 x17))) (and (and (and (not (= (x8 x7 x7) x48)) (not (= (x8 x157 x157) x117))) (not (= x35 (x8 x113 x113)))) (not (= x46 (x8 x49 x49)))))))))
(assert (let ((x7 (x8 x32 x117)) (x23 (x8 x46 x117)) (x118 (x8 x32 x32)) (x123 (x8 x32 x35)) (x158 (x8 x48 x117)) (x69 (x8 x117 x117)) (x154 (x8 x46 x35)) (x42 (x8 x48 x35)) (x142 (x8 x32 x46)) (x17 (x8 x48 x32)) (x39 (x8 x117 x48)) (x151 (x8 x117 x35)) (x14 (x8 x46 x48)) (x157 (x8 x46 x46)) (x79 (x8 x48 x46)) (x53 (x8 x48 x48)) (x149 (x8 x117 x32)) (x21 (x8 x35 x117)) (x94 (x8 x35 x46)) (x150 (x8 x46 x32)) (x40 (x8 x117 x46)) (x75 (x8 x35 x32)) (x49 (x8 x32 x48)) (x122 (x8 x35 x48)) (x10 (x8 x35 x35))) (let ((x78 (= x40 x117)) (x132 (= x117 x151)) (x103 (= x48 x17)) (x95 (= x49 x32)) (x15 (= x123 x32)) (x84 (= x10 x35)) (x136 (= x32 x142)) (x129 (= x7 x32)) (x41 (= x46 x157)) (x82 (= x35 x21)) (x19 (= x46 x150)) (x99 (= x46 x14)) (x148 (= x23 x46)) (x138 (= x35 x122)) (x116 (= x48 x79)) (x110 (= x35 x94)) (x64 (= x35 x75)) (x77 (= x32 x118)) (x24 (= x46 x154)) (x76 (= x39 x117)) (x91 (= x117 x69)) (x87 (= x53 x48)) (x115 (= x48 x158)) (x113 (= x149 x117)) (x130 (= x48 x42))) (and (and (and (or (or (or (and x136 (= x150 x35)) (or (or (or (and x116 (= x14 x35)) (and x78 (= x23 x35))) (and (= x35 x154) x110)) (and (= x35 x157) x41))) (or (or (or (and (= x35 x149) x129) (or (or (and x82 (= x151 x35)) (or (and x115 (= x39 x35)) (and (= x35 x69) x91))) (and (= x35 x40) x148))) (or (or (and (= x79 x35) x99) (or (and x138 (= x35 x42)) (or (and (= x53 x35) x87) (and (= x35 x158) x76)))) (and x95 (= x17 x35)))) (or (and x64 x15) (or (or (or (and x130 x138) (and x82 x132)) (and x84 x84)) (and x110 x24))))) (or (or (and x19 (= x35 x142)) (or (and x64 (= x123 x35)) (or (and x103 (= x49 x35)) (and x113 (= x7 x35))))) (and (= x35 x118) x77))) (and (or (or (or (or (or (and x110 (= x48 x154)) (or (and (= x48 x23) x78) (and x116 (= x48 x14)))) (and x41 (= x48 x157))) (and (= x48 x150) x136)) (or (or (and (= x48 x75) x15) (or (or (or (and (= x21 x48) x132) (and x130 (= x48 x122))) (and x84 (= x48 x10))) (and x24 (= x94 x48)))) (or (or (or (or (and x82 (= x151 x48)) (or (and x115 (= x39 x48)) (and x91 (= x48 x69)))) (and x148 (= x48 x40))) (and x129 (= x149 x48))) (or (or (or (or (and x87 x87) (and x115 x76)) (and x138 x130)) (and x99 x116)) (and x95 x103))))) (or (or (and (= x48 x142) x19) (or (and x64 (= x123 x48)) (or (and x103 (= x49 x48)) (and (= x48 x7) x113)))) (and x77 (= x118 x48)))) (or (or (and x77 (= x117 x118)) (or (or (or (and x113 (= x117 x7)) (and (= x49 x117) x103)) (and (= x123 x117) x64)) (and x19 (= x142 x117)))) (or (or (or (or (or (and x78 x148) (or (or (and x91 x91) (and x76 x115)) (and x132 x82))) (and x113 x129)) (or (or (or (or (and x87 (= x117 x53)) (and (= x158 x117) x76)) (and x138 (= x42 x117))) (and x99 (= x117 x79))) (and x95 (= x117 x17)))) (or (and x15 (= x117 x75)) (or (and x24 (= x117 x94)) (or (and (= x117 x10) x84) (or (and (= x117 x122) x130) (and (= x21 x117) x132)))))) (or (and (= x117 x150) x136) (or (or (and x110 (= x117 x154)) (or (and (= x117 x23) x78) (and x116 (= x117 x14)))) (and (= x157 x117) x41))))))) (or (or (or (or (and x64 (= x46 x123)) (or (and (= x49 x46) x103) (and (= x7 x46) x113))) (and x19 (= x142 x46))) (and x77 (= x46 x118))) (or (or (and x19 x136) (or (and x41 x41) (or (or (and x148 x78) (and x99 x116)) (and x110 x24)))) (or (or (or (and x24 (= x94 x46)) (or (or (and (= x122 x46) x130) (and x132 (= x21 x46))) (and (= x10 x46) x84))) (and (= x46 x75) x15)) (or (or (or (or (and x82 (= x46 x151)) (or (and (= x46 x69) x91) (and (= x39 x46) x115))) (and x148 (= x40 x46))) (and x129 (= x46 x149))) (or (or (and (= x46 x79) x99) (or (and (= x42 x46) x138) (or (and x76 (= x46 x158)) (and (= x53 x46) x87)))) (and (= x46 x17) x95))))))) (or (or (or (and x136 x19) (or (or (and x95 x103) (and x129 x113)) (and x15 x64))) (and x77 x77)) (or (or (or (and (= x157 x32) x41) (or (and (= x154 x32) x110) (or (and x78 (= x23 x32)) (and (= x14 x32) x116)))) (and (= x150 x32) x136)) (or (or (or (or (and x99 (= x79 x32)) (or (or (and x76 (= x32 x158)) (and (= x32 x53) x87)) (and x138 (= x42 x32)))) (and (= x17 x32) x95)) (or (or (and x148 (= x40 x32)) (or (or (and x91 (= x32 x69)) (and x115 (= x32 x39))) (and (= x151 x32) x82))) (and x129 (= x32 x149)))) (or (and x15 (= x32 x75)) (or (and x24 (= x32 x94)) (or (and (= x10 x32) x84) (or (and (= x32 x122) x130) (and (= x32 x21) x132))))))))))))
(assert (and (and (or (= x46 (x8 (x8 x32 x46) x32)) (or (= x46 (x8 (x8 x46 x46) x46)) (or (or (= (x8 (x8 x117 x46) x117) x46) (= (x8 (x8 x48 x46) x48) x46)) (= (x8 (x8 x35 x46) x35) x46)))) (and (or (= x35 (x8 (x8 x32 x35) x32)) (or (= x35 (x8 (x8 x46 x35) x46)) (or (or (= x35 (x8 (x8 x117 x35) x117)) (= x35 (x8 (x8 x48 x35) x48))) (= x35 (x8 (x8 x35 x35) x35))))) (and (or (or (or (= x117 (x8 (x8 x35 x117) x35)) (or (= x117 (x8 (x8 x48 x117) x48)) (= (x8 (x8 x117 x117) x117) x117))) (= (x8 (x8 x46 x117) x46) x117)) (= x117 (x8 (x8 x32 x117) x32))) (or (or (= x48 (x8 (x8 x46 x48) x46)) (or (= (x8 (x8 x35 x48) x35) x48) (or (= x48 (x8 (x8 x48 x48) x48)) (= (x8 (x8 x117 x48) x117) x48)))) (= (x8 (x8 x32 x48) x32) x48))))) (or (or (= x32 (x8 (x8 x46 x32) x46)) (or (= x32 (x8 (x8 x35 x32) x35)) (or (= x32 (x8 (x8 x48 x32) x48)) (= x32 (x8 (x8 x117 x32) x117))))) (= (x8 (x8 x32 x32) x32) x32))))
(assert (let ((x53 (x8 x46 x46)) (x21 (x8 x32 x32)) (x76 (x8 x35 x35)) (x158 (x8 x48 x48)) (x91 (x8 x117 x117))) (or (and (not (= x32 x21)) (and (not (= x53 x32)) (and (and (not (= x91 x32)) (not (= x32 x158))) (not (= x32 x76))))) (or (or (and (not (= x35 x21)) (and (and (and (not (= x35 x91)) (not (= x158 x35))) (not (= x35 x76))) (not (= x35 x53)))) (or (and (not (= x21 x48)) (and (and (not (= x76 x48)) (and (not (= x158 x48)) (not (= x48 x91)))) (not (= x53 x48)))) (and (and (and (not (= x117 x76)) (and (not (= x117 x91)) (not (= x158 x117)))) (not (= x53 x117))) (not (= x117 x21))))) (and (not (= x46 x21)) (and (not (= x53 x46)) (and (not (= x46 x76)) (and (not (= x91 x46)) (not (= x46 x158))))))))))
(assert (let ((x116 (x8 x48 x48)) (x24 (x8 x46 x48)) (x124 (x8 x46 x35)) (x115 (x8 x117 x48)) (x69 (x8 x117 x117)) (x101 (x8 x32 x46)) (x40 (x8 x35 x117)) (x84 (x8 x48 x46)) (x28 (x8 x35 x46)) (x87 (x8 x32 x117)) (x92 (x8 x35 x32)) (x15 (x8 x48 x32)) (x134 (x8 x32 x35)) (x77 (x8 x35 x35)) (x68 (x8 x32 x32)) (x90 (x8 x46 x32)) (x82 (x8 x117 x35)) (x103 (x8 x48 x35)) (x71 (x8 x46 x46)) (x95 (x8 x35 x48)) (x148 (x8 x117 x46)) (x151 (x8 x48 x117)) (x110 (x8 x32 x48)) (x129 (x8 x117 x32)) (x149 (x8 x46 x117))) (let ((x21 (not (= x117 x40))) (x79 (not (= x117 x84))) (x59 (not (= x87 x32))) (x19 (not (= x48 x103))) (x130 (not (= x151 x48))) (x73 (not (= x35 x134))) (x158 (not (= x151 x117))) (x142 (not (= x117 x101))) (x154 (not (= x124 x117))) (x44 (not (= x148 x46))) (x99 (not (= x116 x48))) (x105 (not (= x35 x68))) (x102 (not (= x134 x46))) (x45 (not (= x48 x129))) (x123 (not (= x134 x117))) (x65 (not (= x28 x48))) (x20 (not (= x48 x149))) (x75 (not (= x92 x117))) (x119 (not (= x103 x35))) (x39 (not (= x48 x69))) (x6 (not (= x35 x129))) (x153 (not (= x35 x124))) (x13 (not (= x82 x46))) (x38 (not (= x116 x46))) (x127 (not (= x101 x32))) (x14 (not (= x24 x117))) (x55 (not (= x48 x71))) (x98 (not (= x40 x35))) (x104 (not (= x77 x35))) (x34 (not (= x124 x46))) (x147 (not (= x69 x32))) (x42 (not (= x103 x117))) (x91 (not (= x69 x117))) (x7 (not (= x117 x87))) (x12 (not (= x24 x35))) (x30 (not (= x35 x15))) (x37 (not (= x35 x92))) (x63 (not (= x48 x124))) (x86 (not (= x69 x35))) (x96 (not (= x116 x32))) (x50 (not (= x151 x35))) (x111 (not (= x69 x46))) (x78 (not (= x117 x148))) (x139 (not (= x148 x35))) (x3 (not (= x46 x110))) (x31 (not (= x149 x32))) (x10 (not (= x77 x117))) (x133 (not (= x46 x15))) (x89 (not (= x110 x48))) (x61 (not (= x68 x48))) (x56 (not (= x35 x115))) (x137 (not (= x90 x46))) (x97 (not (= x129 x32))) (x47 (not (= x103 x46))) (x118 (not (= x117 x68))) (x58 (not (= x90 x35))) (x93 (not (= x82 x32))) (x26 (not (= x35 x71))) (x126 (not (= x24 x48))) (x88 (not (= x35 x95))) (x156 (not (= x48 x87))) (x146 (not (= x48 x84))) (x43 (not (= x46 x95))) (x155 (not (= x32 x151))) (x33 (not (= x35 x87))) (x64 (not (= x95 x48))) (x49 (not (= x117 x110))) (x114 (not (= x148 x32))) (x157 (not (= x117 x71))) (x141 (not (= x35 x116))) (x66 (not (= x32 x15))) (x107 (not (= x46 x77))) (x128 (not (= x32 x103))) (x27 (not (= x95 x32))) (x70 (not (= x24 x32))) (x85 (not (= x32 x68))) (x145 (not (= x32 x115))) (x2 (not (= x46 x68))) (x132 (not (= x82 x117))) (x125 (not (= x46 x101))) (x80 (not (= x149 x46))) (x108 (not (= x46 x28))) (x18 (not (= x110 x32))) (x16 (not (= x101 x35))) (x62 (not (= x32 x40))) (x106 (not (= x87 x46))) (x121 (not (= x48 x92))) (x9 (not (= x84 x46))) (x1 (not (= x92 x32))) (x159 (not (= x48 x77))) (x22 (not (= x46 x115))) (x67 (not (= x48 x15))) (x113 (not (= x117 x129))) (x131 (not (= x82 x35))) (x109 (not (= x35 x110))) (x136 (not (= x82 x48))) (x29 (not (= x148 x48))) (x4 (not (= x71 x46))) (x36 (not (= x32 x134))) (x94 (not (= x28 x117))) (x11 (not (= x101 x48))) (x135 (not (= x35 x28))) (x41 (not (= x40 x48))) (x100 (not (= x35 x149))) (x51 (not (= x124 x32))) (x143 (not (= x129 x46))) (x23 (not (= x117 x149))) (x150 (not (= x117 x90))) (x5 (not (= x46 x24))) (x74 (not (= x32 x77))) (x52 (not (= x48 x134))) (x120 (not (= x84 x32))) (x17 (not (= x117 x15))) (x138 (not (= x48 x115))) (x144 (not (= x84 x35))) (x76 (not (= x117 x115))) (x57 (not (= x92 x46))) (x72 (not (= x48 x90))) (x122 (not (= x117 x95))) (x53 (not (= x117 x116))) (x140 (not (= x32 x71))) (x112 (not (= x90 x32))) (x60 (not (= x46 x40))) (x152 (not (= x28 x32))) (x25 (not (= x46 x151)))) (or (and (and (and (or x127 x112) (and (or x36 x1) (and (or x59 x97) (or x66 x18)))) (or x85 x85)) (and (and (and (and (or x152 x51) (and (and (or x62 x93) (or x27 x128)) (or x74 x74))) (or x36 x1)) (and (and (or x59 x97) (and (and (and (or x147 x147) (or x145 x155)) (or x62 x93)) (or x31 x114))) (and (or x66 x18) (and (or x120 x70) (and (and (or x155 x145) (or x96 x96)) (or x128 x27)))))) (and (or x127 x112) (and (or x140 x140) (and (and (or x120 x70) (or x114 x31)) (or x51 x152)))))) (or (or (or (and (and (and (or x150 x142) (and (and (or x154 x94) (and (or x14 x79) (or x78 x23))) (or x157 x157))) (and (and (and (or x113 x7) (and (and (and (or x91 x91) (or x158 x76)) (or x21 x132)) (or x23 x78))) (and (and (and (or x122 x42) (and (or x53 x53) (or x76 x158))) (or x79 x14)) (or x49 x17))) (and (and (or x154 x94) (and (and (or x122 x42) (or x21 x132)) (or x10 x10))) (or x75 x123)))) (and (or x118 x118) (and (and (or x75 x123) (and (or x7 x113) (or x49 x17))) (or x150 x142)))) (and (and (and (and (and (and (or x20 x29) (and (and (or x39 x39) (or x130 x138)) (or x136 x41))) (or x45 x156)) (and (and (and (and (or x99 x99) (or x138 x130)) (or x64 x19)) (or x146 x126)) (or x89 x67))) (and (or x52 x121) (and (and (or x159 x159) (and (or x41 x136) (or x64 x19))) (or x63 x65)))) (and (or x72 x11) (and (and (or x63 x65) (and (or x146 x126) (or x20 x29))) (or x55 x55)))) (and (or x61 x61) (and (and (or x52 x121) (and (or x89 x67) (or x156 x45))) (or x72 x11))))) (and (and (and (or x16 x58) (and (or x37 x73) (and (or x6 x33) (or x109 x30)))) (or x105 x105)) (and (and (and (or x37 x73) (and (and (and (or x119 x88) (or x98 x131)) (or x104 x104)) (or x135 x153))) (and (and (or x33 x6) (and (and (or x131 x98) (and (or x50 x56) (or x86 x86))) (or x139 x100))) (and (or x30 x109) (and (or x144 x12) (and (and (or x141 x141) (or x50 x56)) (or x119 x88)))))) (and (or x16 x58) (and (and (and (or x139 x100) (or x144 x12)) (or x153 x135)) (or x26 x26)))))) (and (and (and (or x125 x137) (and (or x4 x4) (and (or x108 x34) (and (or x9 x5) (or x44 x80))))) (and (and (and (and (or x5 x9) (and (and (or x25 x22) (or x38 x38)) (or x47 x43))) (or x133 x3)) (and (and (or x80 x44) (and (and (or x22 x25) (or x111 x111)) (or x60 x13))) (or x106 x143))) (and (or x102 x57) (and (or x34 x108) (and (or x107 x107) (and (or x13 x60) (or x43 x47))))))) (and (and (and (or x57 x102) (and (or x133 x3) (or x143 x106))) (or x137 x125)) (or x2 x2))))))))
(assert (let ((x75 (x8 x48 x32)) (x39 (x8 x32 x48)) (x119 (x8 x32 x46)) (x143 (x8 x32 x32)) (x21 (x8 x117 x46)) (x132 (x8 x117 x32)) (x15 (x8 x35 x35)) (x10 (x8 x35 x117)) (x76 (x8 x117 x48)) (x17 (x8 x48 x35)) (x158 (x8 x117 x117)) (x123 (x8 x48 x46)) (x53 (x8 x117 x35)) (x23 (x8 x46 x117)) (x50 (x8 x46 x46)) (x56 (x8 x46 x32)) (x77 (x8 x46 x35)) (x159 (x8 x32 x35)) (x41 (x8 x35 x32)) (x42 (x8 x48 x117)) (x78 (x8 x32 x117)) (x69 (x8 x46 x48)) (x49 (x8 x48 x48)) (x110 (x8 x35 x46)) (x118 (x8 x35 x48))) (let ((x149 (= x46 x49)) (x22 (= x32 x110)) (x65 (= x46 x15)) (x87 (= x32 x76)) (x157 (= x76 x117)) (x59 (= x78 x32)) (x96 (= x75 x35)) (x103 (= x117 x17)) (x28 (= x10 x35)) (x89 (= x69 x117)) (x120 (= x75 x46)) (x125 (= x48 x143)) (x5 (= x117 x56)) (x62 (= x41 x35)) (x68 (= x23 x48)) (x63 (= x46 x17)) (x73 (= x46 x110)) (x31 (= x46 x159)) (x38 (= x32 x50)) (x93 (= x35 x56)) (x88 (= x48 x50)) (x19 (= x48 x15)) (x25 (= x32 x123)) (x51 (= x46 x41)) (x64 (= x17 x48)) (x131 (= x110 x48)) (x106 (= x48 x119)) (x133 (= x48 x75)) (x144 (= x123 x35)) (x150 (= x49 x48)) (x52 (= x21 x117)) (x44 (= x41 x117)) (x82 (= x35 x49)) (x30 (= x123 x46)) (x33 (= x69 x46)) (x70 (= x132 x46)) (x55 (= x118 x32)) (x67 (= x117 x77)) (x99 (= x53 x117)) (x4 (= x48 x159)) (x11 (= x110 x117)) (x57 (= x56 x48)) (x91 (= x117 x158)) (x108 (= x39 x48)) (x112 (= x56 x32)) (x3 (= x132 x48)) (x9 (= x117 x143)) (x138 (= x117 x10)) (x126 (= x46 x118)) (x97 (= x39 x32)) (x101 (= x17 x32)) (x102 (= x48 x41)) (x92 (= x35 x53)) (x156 (= x15 x32)) (x139 (= x35 x77)) (x135 (= x50 x35)) (x37 (= x46 x50)) (x94 (= x42 x117)) (x109 (= x46 x21)) (x153 (= x110 x35)) (x7 (= x49 x117)) (x43 (= x159 x117)) (x134 (= x17 x35)) (x34 (= x78 x48)) (x116 (= x118 x117)) (x151 (= x76 x35)) (x72 (= x117 x50)) (x100 (= x69 x35)) (x14 (= x158 x35)) (x1 (= x75 x32)) (x90 (= x53 x32)) (x140 (= x46 x143)) (x79 (= x46 x158)) (x12 (= x21 x35)) (x60 (= x117 x78)) (x26 (= x23 x46)) (x2 (= x35 x39)) (x47 (= x119 x117)) (x142 (= x48 x76)) (x121 (= x117 x123)) (x61 (= x69 x48)) (x6 (= x46 x77)) (x115 (= x35 x42)) (x104 (= x35 x23)) (x74 (= x39 x46)) (x105 (= x77 x32)) (x154 (= x32 x158)) (x13 (= x117 x39)) (x16 (= x32 x23)) (x155 (= x119 x35)) (x127 (= x32 x41)) (x128 (= x46 x78)) (x24 (= x48 x118)) (x145 (= x35 x132)) (x84 (= x10 x48)) (x95 (= x15 x117)) (x36 (= x132 x32)) (x136 (= x53 x48)) (x29 (= x10 x46)) (x122 (= x48 x158)) (x80 (= x75 x117)) (x146 (= x53 x46)) (x129 (= x32 x42)) (x107 (= x117 x132)) (x20 (= x15 x35)) (x58 (= x32 x69)) (x86 (= x48 x77)) (x141 (= x21 x48)) (x114 (= x119 x46)) (x85 (= x32 x143)) (x66 (= x32 x119)) (x27 (= x143 x35)) (x40 (= x46 x42)) (x137 (= x35 x78)) (x147 (= x35 x159)) (x152 (= x46 x56)) (x113 (= x48 x42)) (x124 (= x118 x35)) (x130 (= x49 x32)) (x18 (= x32 x159)) (x71 (= x10 x32)) (x45 (= x117 x23)) (x111 (= x21 x32)) (x98 (= x123 x48)) (x148 (= x76 x46))) (and (and (and (and (and (and (and (or (or (or x29 (or x40 x79)) x26) x128) (or (or (or x146 (or x148 x79)) x109) x70)) (and (and (or (or x12 (or (or x151 x14) x92)) x145) (or (or x104 (or (or x14 x115) x28)) x137)) (and (and (or x3 (or x141 (or (or x122 x142) x136))) (or (or (or (or x122 x113) x84) x68) x34)) (and (or (or x45 (or x138 (or x94 x91))) x60) (or (or x52 (or (or x157 x91) x99)) x107))))) (and (or (or (or x90 (or x154 x87)) x111) x36) (or (or x16 (or (or x129 x154) x71)) x59))) (and (and (or (or x25 (or x101 (or x130 x129))) x1) (or (or (or (or x87 x130) x55) x58) x97)) (and (and (and (or (or x100 (or (or x82 x151) x124)) x2) (or (or (or (or x82 x115) x134) x144) x96)) (and (and (or (or (or x116 (or x157 x7)) x89) x13) (or (or (or x103 (or x94 x7)) x121) x80)) (and (or x133 (or x98 (or x64 (or x150 x113)))) (or x108 (or (or x24 (or x150 x142)) x61))))) (and (or x120 (or x30 (or (or x40 x149) x63))) (or x74 (or (or (or x149 x148) x126) x33)))))) (and (and (or (or (or x156 (or x101 x90)) x105) x18) (or (or x22 (or (or x55 x71) x156)) x127)) (and (and (and (and (or (or x86 (or (or x136 x64) x19)) x4) (or (or (or x19 (or x84 x24)) x131) x102)) (and (or x43 (or (or (or x99 x103) x95) x67)) (or (or (or (or x116 x138) x95) x11) x44))) (and (or x62 (or (or (or x124 x28) x20) x153)) (or (or x139 (or (or x92 x134) x20)) x147))) (and (or (or (or (or x146 x63) x65) x6) x31) (or (or (or x65 (or x29 x126)) x73) x51))))) (and (and (or (or (or x105 (or x58 x16)) x38) x112) (or x66 (or x38 (or (or x111 x25) x22)))) (and (and (and (or x93 (or x135 (or x139 (or x100 x104)))) (or (or (or x153 (or x12 x144)) x135) x155)) (and (and (or x57 (or x88 (or (or x68 x61) x86))) (or (or x88 (or x131 (or x98 x141))) x106)) (and (or x5 (or x72 (or x67 (or x45 x89)))) (or x47 (or (or x11 (or x52 x121)) x72))))) (and (or (or (or x6 (or x33 x26)) x37) x152) (or x114 (or x37 (or x73 (or x109 x30)))))))) (and (and (or x85 (or (or (or x1 x36) x127) x112)) (or x85 (or x66 (or (or x59 x97) x18)))) (and (and (or (or (or (or x128 x74) x31) x114) x140) (or x140 (or x152 (or (or x70 x120) x51)))) (and (and (or x27 (or (or (or x96 x145) x62) x93)) (or (or (or (or x2 x137) x147) x155) x27)) (and (and (or x9 (or (or (or x107 x80) x44) x5)) (or x9 (or (or x43 (or x13 x60)) x47))) (and (or (or (or (or x133 x3) x102) x57) x125) (or (or x106 (or x4 (or x34 x108))) x125))))))))))
(assert (or (and (and (and (not (= (x8 (x8 x35 x32) x32) x35)) (and (not (= x117 (x8 (x8 x117 x32) x32))) (not (= x48 (x8 (x8 x48 x32) x32))))) (not (= (x8 (x8 x46 x32) x32) x46))) (not (= (x8 (x8 x32 x32) x32) x32))) (or (or (or (and (not (= x32 (x8 (x8 x32 x117) x117))) (and (and (and (not (= x117 (x8 (x8 x117 x117) x117))) (not (= (x8 (x8 x48 x117) x117) x48))) (not (= (x8 (x8 x35 x117) x117) x35))) (not (= (x8 (x8 x46 x117) x117) x46)))) (and (not (= x32 (x8 (x8 x32 x48) x48))) (and (not (= x46 (x8 (x8 x46 x48) x48))) (and (and (not (= (x8 (x8 x117 x48) x48) x117)) (not (= x48 (x8 (x8 x48 x48) x48)))) (not (= x35 (x8 (x8 x35 x48) x48))))))) (and (not (= (x8 (x8 x32 x35) x35) x32)) (and (not (= x46 (x8 (x8 x46 x35) x35))) (and (not (= x35 (x8 (x8 x35 x35) x35))) (and (not (= x117 (x8 (x8 x117 x35) x35))) (not (= x48 (x8 (x8 x48 x35) x35)))))))) (and (and (not (= x46 (x8 (x8 x46 x46) x46))) (and (and (not (= x48 (x8 (x8 x48 x46) x46))) (not (= (x8 (x8 x117 x46) x46) x117))) (not (= x35 (x8 (x8 x35 x46) x46))))) (not (= (x8 (x8 x32 x46) x46) x32))))))
(assert (and (= (x8 x35 x46) x32) (and (and (= x35 (x8 x48 x117)) (= x48 (x8 x117 x117))) (= x46 (x8 x35 x48)))))
(assert (or (and (not (= x32 (x8 x32 (x8 x32 x32)))) (and (not (= (x8 x46 (x8 x32 x46)) x32)) (and (and (not (= (x8 x117 (x8 x32 x117)) x32)) (not (= (x8 x48 (x8 x32 x48)) x32))) (not (= x32 (x8 x35 (x8 x32 x35))))))) (or (or (and (not (= (x8 x32 (x8 x35 x32)) x35)) (and (not (= x35 (x8 x46 (x8 x35 x46)))) (and (and (not (= (x8 x117 (x8 x35 x117)) x35)) (not (= (x8 x48 (x8 x35 x48)) x35))) (not (= (x8 x35 (x8 x35 x35)) x35))))) (or (and (and (not (= x48 (x8 x46 (x8 x48 x46)))) (and (not (= x48 (x8 x35 (x8 x48 x35)))) (and (not (= x48 (x8 x117 (x8 x48 x117)))) (not (= x48 (x8 x48 (x8 x48 x48))))))) (not (= (x8 x32 (x8 x48 x32)) x48))) (and (not (= x117 (x8 x32 (x8 x117 x32)))) (and (and (and (not (= x117 (x8 x48 (x8 x117 x48)))) (not (= x117 (x8 x117 (x8 x117 x117))))) (not (= (x8 x35 (x8 x117 x35)) x117))) (not (= (x8 x46 (x8 x117 x46)) x117)))))) (and (not (= x46 (x8 x32 (x8 x46 x32)))) (and (and (and (not (= (x8 x117 (x8 x46 x117)) x46)) (not (= x46 (x8 x48 (x8 x46 x48))))) (not (= (x8 x35 (x8 x46 x35)) x46))) (not (= (x8 x46 (x8 x46 x46)) x46)))))))
(assert (or (and (= x32 (x8 (x8 x32 x32) x32)) (and (and (and (= (x8 (x8 x48 x32) x32) x48) (= x117 (x8 (x8 x117 x32) x32))) (= x35 (x8 (x8 x35 x32) x32))) (= x46 (x8 (x8 x46 x32) x32)))) (or (and (= (x8 (x8 x32 x46) x46) x32) (and (= (x8 (x8 x46 x46) x46) x46) (and (= x35 (x8 (x8 x35 x46) x46)) (and (= x117 (x8 (x8 x117 x46) x46)) (= (x8 (x8 x48 x46) x46) x48))))) (or (and (= (x8 (x8 x32 x35) x35) x32) (and (and (and (= x117 (x8 (x8 x117 x35) x35)) (= x48 (x8 (x8 x48 x35) x35))) (= x35 (x8 (x8 x35 x35) x35))) (= x46 (x8 (x8 x46 x35) x35)))) (or (and (and (and (= x35 (x8 (x8 x35 x117) x117)) (and (= x48 (x8 (x8 x48 x117) x117)) (= (x8 (x8 x117 x117) x117) x117))) (= x46 (x8 (x8 x46 x117) x117))) (= (x8 (x8 x32 x117) x117) x32)) (and (= (x8 (x8 x32 x48) x48) x32) (and (and (= x35 (x8 (x8 x35 x48) x48)) (and (= x48 (x8 (x8 x48 x48) x48)) (= (x8 (x8 x117 x48) x48) x117))) (= (x8 (x8 x46 x48) x48) x46))))))))
(assert (let ((x76 (x8 x117 x48)) (x42 (x8 x48 x35)) (x75 (x8 x35 x32)) (x122 (x8 x35 x48)) (x94 (x8 x35 x46)) (x123 (x8 x32 x35)) (x99 (x8 x46 x117)) (x118 (x8 x32 x32)) (x157 (x8 x46 x46)) (x69 (x8 x117 x117)) (x150 (x8 x46 x32)) (x79 (x8 x48 x46)) (x154 (x8 x46 x35)) (x78 (x8 x117 x46)) (x132 (x8 x117 x35)) (x10 (x8 x35 x35)) (x14 (x8 x46 x48)) (x142 (x8 x32 x46)) (x113 (x8 x117 x32)) (x17 (x8 x48 x32)) (x110 (x8 x32 x117)) (x49 (x8 x32 x48)) (x53 (x8 x48 x48)) (x149 (x8 x35 x117)) (x115 (x8 x48 x117))) (let ((x138 (= x154 x35)) (x41 (= x32 x113)) (x87 (= x42 x35)) (x91 (= x69 x117)) (x84 (= x94 x46)) (x24 (= x157 x46)) (x15 (= x142 x46)) (x39 (= x76 x48)) (x82 (= x122 x48)) (x130 (= x10 x35)) (x77 (= x32 x118)) (x21 (= x117 x149)) (x151 (= x48 x53)) (x158 (= x117 x115)) (x23 (= x117 x99)) (x19 (= x32 x150)) (x129 (= x35 x132)) (x136 (= x17 x32)) (x64 (= x75 x32)) (x40 (= x48 x14)) (x148 (= x48 x49)) (x116 (= x35 x123)) (x7 (= x110 x117)) (x95 (= x46 x79)) (x103 (= x46 x78))) (and (and (and (and (or (or (or (and (= x117 x150) x15) (or (and (= x157 x117) x24) (or (and x84 (= x117 x154)) (or (and (= x14 x117) x95) (and x23 x103))))) (or (or (or (or (and (= x10 x117) x130) (or (and (= x122 x117) x87) (and x21 x129))) (and x138 (= x117 x94))) (and (= x75 x117) x116)) (or (or (or (or (or (and (= x117 x53) x151) (and x39 x158)) (and x82 (= x117 x42))) (and x40 (= x117 x79))) (and x148 (= x117 x17))) (or (or (or (or (and x91 x91) (and x158 (= x117 x76))) (and x21 (= x132 x117))) (and (= x78 x117) x23)) (and (= x117 x113) x7))))) (or (or (or (and (= x117 x123) x64) (or (and x7 x41) (and x136 (= x49 x117)))) (and (= x117 x142) x19)) (and (= x117 x118) x77))) (or (or (and x77 (= x118 x48)) (or (and x19 (= x142 x48)) (or (or (and (= x48 x110) x41) (and x148 x136)) (and (= x123 x48) x64)))) (or (or (or (or (or (or (or (and (= x48 x115) x39) (and x151 x151)) (and x82 (= x42 x48))) (and (= x79 x48) x40)) (and (= x48 x17) x148)) (or (or (and (= x48 x78) x23) (or (and (= x132 x48) x21) (or (and x39 x158) (and x91 (= x69 x48))))) (and (= x113 x48) x7))) (or (and x116 (= x48 x75)) (or (or (and x130 (= x48 x10)) (or (and x129 (= x149 x48)) (and x87 x82))) (and (= x94 x48) x138)))) (or (and x15 (= x48 x150)) (or (or (and x84 (= x48 x154)) (or (and (= x99 x48) x103) (and x40 x95))) (and x24 (= x157 x48))))))) (or (or (or (and (= x150 x35) x15) (or (or (and x138 x84) (or (and x95 (= x14 x35)) (and x103 (= x35 x99)))) (and (= x35 x157) x24))) (or (or (or (and x7 (= x35 x113)) (or (and (= x35 x78) x23) (or (or (and x91 (= x35 x69)) (and x158 (= x76 x35))) (and x129 x21)))) (or (and (= x35 x17) x148) (or (or (and x82 x87) (or (and x39 (= x35 x115)) (and (= x53 x35) x151))) (and (= x35 x79) x40)))) (or (and x116 (= x75 x35)) (or (or (and x130 x130) (or (and (= x35 x122) x87) (and (= x35 x149) x129))) (and x138 (= x35 x94)))))) (or (and x77 (= x118 x35)) (or (or (or (and (= x49 x35) x136) (and x41 (= x35 x110))) (and x116 x64)) (and (= x35 x142) x19))))) (or (or (or (or (or (or (or (and x87 (= x122 x46)) (and (= x46 x149) x129)) (and x130 (= x46 x10))) (and x138 x84)) (and x116 (= x75 x46))) (or (or (or (and x40 x95) (or (or (and (= x115 x46) x39) (and x151 (= x53 x46))) (and (= x46 x42) x82))) (and (= x46 x17) x148)) (or (or (and x103 x23) (or (or (and (= x76 x46) x158) (and (= x69 x46) x91)) (and x21 (= x132 x46)))) (and x7 (= x113 x46))))) (or (and (= x150 x46) x15) (or (or (or (and x95 (= x46 x14)) (and x103 (= x99 x46))) (and (= x154 x46) x84)) (and x24 x24)))) (or (or (or (and x64 (= x123 x46)) (or (and x136 (= x46 x49)) (and x41 (= x46 x110)))) (and x15 x19)) (and x77 (= x118 x46))))) (or (or (or (or (and (= x157 x32) x24) (or (or (and x95 (= x14 x32)) (and (= x32 x99) x103)) (and x84 (= x32 x154)))) (and x15 x19)) (or (or (or (and x41 x7) (or (or (and x21 (= x132 x32)) (or (and (= x32 x76) x158) (and (= x32 x69) x91))) (and x23 (= x78 x32)))) (or (or (and x40 (= x79 x32)) (or (and x82 (= x42 x32)) (or (and x39 (= x115 x32)) (and (= x32 x53) x151)))) (and x148 x136))) (or (or (or (and (= x10 x32) x130) (or (and x129 (= x32 x149)) (and (= x122 x32) x87))) (and x138 (= x94 x32))) (and x116 x64)))) (or (or (and (= x32 x142) x19) (or (or (and (= x110 x32) x41) (and x136 (= x32 x49))) (and (= x32 x123) x64))) (and x77 x77)))))))
(assert (or (and (not (= x32 (x8 (x8 x32 x32) x32))) (and (and (and (not (= (x8 (x8 x32 x117) x32) x117)) (not (= x48 (x8 (x8 x32 x48) x32)))) (not (= x35 (x8 (x8 x32 x35) x32)))) (not (= x46 (x8 (x8 x32 x46) x32))))) (or (and (and (not (= (x8 (x8 x46 x46) x46) x46)) (and (and (not (= (x8 (x8 x46 x117) x46) x117)) (not (= x48 (x8 (x8 x46 x48) x46)))) (not (= x35 (x8 (x8 x46 x35) x46))))) (not (= (x8 (x8 x46 x32) x46) x32))) (or (or (and (and (not (= x46 (x8 (x8 x48 x46) x48))) (and (not (= (x8 (x8 x48 x35) x48) x35)) (and (not (= x48 (x8 (x8 x48 x48) x48))) (not (= (x8 (x8 x48 x117) x48) x117))))) (not (= x32 (x8 (x8 x48 x32) x48)))) (and (not (= x32 (x8 (x8 x117 x32) x117))) (and (and (and (not (= (x8 (x8 x117 x117) x117) x117)) (not (= x48 (x8 (x8 x117 x48) x117)))) (not (= x35 (x8 (x8 x117 x35) x117)))) (not (= (x8 (x8 x117 x46) x117) x46))))) (and (not (= x32 (x8 (x8 x35 x32) x35))) (and (not (= x46 (x8 (x8 x35 x46) x35))) (and (not (= (x8 (x8 x35 x35) x35) x35)) (and (not (= (x8 (x8 x35 x117) x35) x117)) (not (= x48 (x8 (x8 x35 x48) x35)))))))))))
(assert (and (not (= x32 x46)) (and (not (= x35 x32)) (and (not (= x46 x35)) (and (not (= x32 x48)) (and (not (= x48 x46)) (and (and (not (= x32 x117)) (and (not (= x117 x46)) (and (not (= x48 x117)) (not (= x117 x35))))) (not (= x48 x35)))))))))
(assert (or (= (x8 x32 x32) x32) (or (= (x8 x46 x46) x46) (or (= (x8 x35 x35) x35) (or (= x48 (x8 x48 x48)) (= (x8 x117 x117) x117))))))
(check-sat)
(exit)
